38
1 0 37
2 0 11
2 1 4
3 0 43
3 1 44
3 2 11
4 0 8
4 1 44
4 2 33
4 3 44
5 0 31
5 1 28
5 2 26
5 3 2
5 4 32
6 0 43
6 1 17
6 2 44
6 3 41
6 4 16
6 5 19
7 0 7
7 1 11
7 2 32
7 3 17
7 4 38
7 5 39
7 6 17
8 0 19
8 1 4
8 2 8
8 3 34
8 4 15
8 5 31
8 6 3
8 7 36
9 0 11
9 1 28
9 2 33
9 3 12
9 4 9
9 5 33
9 6 17
9 7 37
9 8 4
10 0 6
10 1 34
10 2 9
10 3 40
10 4 10
10 5 1
10 6 6
10 7 5
10 8 40
10 9 2
11 0 10
11 1 16
11 2 26
11 3 10
11 4 8
11 5 20
11 6 28
11 7 25
11 8 21
11 9 35
11 10 3
12 0 9
12 1 35
12 2 26
12 3 4
12 4 7
12 5 37
12 6 16
12 7 38
12 8 29
12 9 10
12 10 29
12 11 37
13 0 9
13 1 15
13 2 3
13 3 14
13 4 28
13 5 36
13 6 39
13 7 8
13 8 26
13 9 36
13 10 1
13 11 39
13 12 43
14 0 5
14 1 43
14 2 6
14 3 35
14 4 38
14 5 44
14 6 4
14 7 43
14 8 21
14 9 36
14 10 29
14 11 14
14 12 4
14 13 19
15 0 12
15 1 33
15 2 15
15 3 41
15 4 32
15 5 4
15 6 23
15 7 18
15 8 9
15 9 33
15 10 27
15 11 10
15 12 1
15 13 12
15 14 13
16 0 19
16 1 30
16 2 4
16 3 5
16 4 33
16 5 9
16 6 1
16 7 26
16 8 2
16 9 41
16 10 40
16 11 40
16 12 21
16 13 36
16 14 34
16 15 43
17 0 7
17 1 36
17 2 20
17 3 34
17 4 5
17 5 38
17 6 13
17 7 31
17 8 16
17 9 7
17 10 22
17 11 25
17 12 7
17 13 37
17 14 17
17 15 23
17 16 40
18 0 28
18 1 14
18 2 28
18 3 38
18 4 34
18 5 15
18 6 27
18 7 25
18 8 37
18 9 35
18 10 11
18 11 12
18 12 19
18 13 1
18 14 40
18 15 11
18 16 41
18 17 20
19 0 44
19 1 17
19 2 23
19 3 28
19 4 19
19 5 28
19 6 21
19 7 20
19 8 11
19 9 17
19 10 12
19 11 11
19 12 5
19 13 15
19 14 41
19 15 15
19 16 19
19 17 39
19 18 39
20 0 44
20 1 36
20 2 3
20 3 5
20 4 3
20 5 33
20 6 13
20 7 14
20 8 37
20 9 21
20 10 25
20 11 20
20 12 28
20 13 11
20 14 6
20 15 43
20 16 15
20 17 29
20 18 17
20 19 15
21 0 41
21 1 27
21 2 29
21 3 39
21 4 28
21 5 16
21 6 17
21 7 2
21 8 10
21 9 15
21 10 13
21 11 22
21 12 29
21 13 39
21 14 9
21 15 34
21 16 44
21 17 13
21 18 11
21 19 8
21 20 24
22 0 11
22 1 18
22 2 20
22 3 12
22 4 6
22 5 9
22 6 14
22 7 7
22 8 24
22 9 23
22 10 25
22 11 10
22 12 37
22 13 2
22 14 41
22 15 42
22 16 37
22 17 35
22 18 22
22 19 26
22 20 43
22 21 29
23 0 10
23 1 34
23 2 6
23 3 2
23 4 15
23 5 1
23 6 18
23 7 39
23 8 15
23 9 9
23 10 26
23 11 37
23 12 41
23 13 16
23 14 24
23 15 10
23 16 6
23 17 34
23 18 8
23 19 2
23 20 15
23 21 43
23 22 41
24 0 8
24 1 11
24 2 24
24 3 16
24 4 33
24 5 33
24 6 40
24 7 29
24 8 44
24 9 8
24 10 36
24 11 6
24 12 13
24 13 30
24 14 43
24 15 40
24 16 3
24 17 24
24 18 3
24 19 18
24 20 39
24 21 28
24 22 40
24 23 15
25 0 40
25 1 19
25 2 1
25 3 18
25 4 12
25 5 4
25 6 15
25 7 29
25 8 26
25 9 40
25 10 2
25 11 27
25 12 44
25 13 36
25 14 34
25 15 2
25 16 44
25 17 28
25 18 23
25 19 30
25 20 31
25 21 31
25 22 20
25 23 31
25 24 12
26 0 30
26 1 28
26 2 40
26 3 41
26 4 39
26 5 10
26 6 10
26 7 10
26 8 13
26 9 7
26 10 25
26 11 7
26 12 9
26 13 16
26 14 14
26 15 42
26 16 4
26 17 25
26 18 1
26 19 14
26 20 8
26 21 11
26 22 3
26 23 13
26 24 43
26 25 13
27 0 19
27 1 10
27 2 9
27 3 44
27 4 26
27 5 32
27 6 28
27 7 9
27 8 18
27 9 39
27 10 11
27 11 7
27 12 22
27 13 37
27 14 35
27 15 8
27 16 16
27 17 25
27 18 37
27 19 10
27 20 19
27 21 16
27 22 36
27 23 43
27 24 22
27 25 28
27 26 24
28 0 3
28 1 24
28 2 36
28 3 14
28 4 13
28 5 32
28 6 19
28 7 29
28 8 21
28 9 3
28 10 31
28 11 1
28 12 39
28 13 6
28 14 25
28 15 20
28 16 18
28 17 34
28 18 11
28 19 26
28 20 4
28 21 23
28 22 20
28 23 30
28 24 21
28 25 27
28 26 28
28 27 33
29 0 14
29 1 13
29 2 18
29 3 24
29 4 42
29 5 5
29 6 1
29 7 18
29 8 39
29 9 18
29 10 27
29 11 40
29 12 12
29 13 1
29 14 40
29 15 44
29 16 4
29 17 44
29 18 39
29 19 3
29 20 37
29 21 36
29 22 8
29 23 39
29 24 8
29 25 30
29 26 16
29 27 33
29 28 19
30 0 12
30 1 27
30 2 43
30 3 39
30 4 28
30 5 39
30 6 29
30 7 42
30 8 39
30 9 8
30 10 14
30 11 40
30 12 26
30 13 11
30 14 3
30 15 27
30 16 28
30 17 27
30 18 1
30 19 30
30 20 14
30 21 9
30 22 15
30 23 28
30 24 16
30 25 33
30 26 6
30 27 13
30 28 3
30 29 22
31 0 7
31 1 14
31 2 21
31 3 16
31 4 35
31 5 30
31 6 29
31 7 16
31 8 36
31 9 25
31 10 15
31 11 28
31 12 13
31 13 35
31 14 18
31 15 6
31 16 10
31 17 38
31 18 2
31 19 1
31 20 29
31 21 14
31 22 30
31 23 27
31 24 40
31 25 35
31 26 35
31 27 39
31 28 36
31 29 7
31 30 18
32 0 5
32 1 40
32 2 30
32 3 30
32 4 25
32 5 20
32 6 26
32 7 4
32 8 20
32 9 15
32 10 9
32 11 1
32 12 7
32 13 23
32 14 3
32 15 34
32 16 35
32 17 10
32 18 35
32 19 9
32 20 24
32 21 14
32 22 31
32 23 29
32 24 5
32 25 31
32 26 6
32 27 2
32 28 21
32 29 9
32 30 27
32 31 26
33 0 33
33 1 28
33 2 26
33 3 24
33 4 31
33 5 43
33 6 33
33 7 3
33 8 20
33 9 30
33 10 14
33 11 17
33 12 5
33 13 38
33 14 21
33 15 12
33 16 28
33 17 21
33 18 36
33 19 28
33 20 4
33 21 3
33 22 39
33 23 30
33 24 2
33 25 27
33 26 39
33 27 10
33 28 33
33 29 10
33 30 40
33 31 23
33 32 24
34 0 22
34 1 40
34 2 29
34 3 17
34 4 42
34 5 31
34 6 40
34 7 23
34 8 6
34 9 37
34 10 23
34 11 39
34 12 29
34 13 14
34 14 36
34 15 15
34 16 33
34 17 16
34 18 11
34 19 15
34 20 20
34 21 26
34 22 29
34 23 11
34 24 12
34 25 30
34 26 26
34 27 22
34 28 5
34 29 42
34 30 38
34 31 22
34 32 35
34 33 27
35 0 16
35 1 28
35 2 11
35 3 36
35 4 42
35 5 1
35 6 29
35 7 13
35 8 41
35 9 1
35 10 24
35 11 34
35 12 23
35 13 3
35 14 40
35 15 2
35 16 1
35 17 41
35 18 8
35 19 17
35 20 42
35 21 17
35 22 43
35 23 2
35 24 8
35 25 17
35 26 15
35 27 31
35 28 37
35 29 35
35 30 38
35 31 5
35 32 24
35 33 6
35 34 40
36 0 21
36 1 8
36 2 35
36 3 33
36 4 9
36 5 18
36 6 26
36 7 10
36 8 3
36 9 19
36 10 33
36 11 31
36 12 2
36 13 40
36 14 41
36 15 43
36 16 44
36 17 44
36 18 14
36 19 13
36 20 24
36 21 29
36 22 9
36 23 12
36 24 14
36 25 44
36 26 44
36 27 39
36 28 19
36 29 18
36 30 26
36 31 36
36 32 18
36 33 10
36 34 18
36 35 1
37 0 14
37 1 30
37 2 20
37 3 9
37 4 39
37 5 13
37 6 21
37 7 27
37 8 15
37 9 24
37 10 42
37 11 15
37 12 32
37 13 9
37 14 7
37 15 40
37 16 9
37 17 3
37 18 9
37 19 43
37 20 22
37 21 1
37 22 17
37 23 24
37 24 23
37 25 9
37 26 38
37 27 23
37 28 42
37 29 42
37 30 21
37 31 9
37 32 39
37 33 14
37 34 24
37 35 27
37 36 24
